NAME : mEgtspf.pid11001.gtsp.161061381.tour
COMMENT : Length = 161061381
COMMENT : Found by LKH [Keld Helsgaun] Wed Mar 19 21:06:28 2025
TYPE : TOUR
DIMENSION : 90
TOUR_SECTION
1
7
13
14
11
12
62
59
60
61
42
39
40
41
82
79
80
81
16
17
18
15
57
58
55
56
3
9
87
88
89
90
49
50
47
48
74
71
72
73
22
19
20
21
25
26
23
24
52
53
54
51
2
46
43
44
45
35
36
37
38
8
5
31
32
33
34
63
64
65
66
29
30
27
28
84
85
86
83
4
77
78
75
76
6
70
67
68
69
10
-1
EOF
